c pcminimize - minimizing a CNF with respect to propagation completeness by iterative removing of absorbed clauses.
c Petr Kucera, 2016-2021
c Version 2.7, revision 59, git hash 4910a71, date 2024-07-16 20:17:42 +0200
p cnf 463 781
-3 -251 0
-119 -251 0
126 -251 0
251 -253 0
252 -253 0
253 -254 0
5 -254 0
-126 -256 0
255 -256 0
256 -257 0
3 -257 0
-119 -259 0
258 -259 0
259 -260 0
-3 -260 0
257 260 -261 0
261 -262 0
-242 -262 0
262 -263 0
-5 -263 0
254 263 -264 0
66 -265 0
86 -265 0
266 -267 0
-86 -267 0
265 267 -268 0
269 -271 0
270 -271 0
268 -272 0
53 -272 0
271 -272 0
272 -273 0
184 -273 0
269 -274 0
270 -274 0
274 -275 0
53 -275 0
269 -276 0
191 -276 0
-84 -277 0
-191 -277 0
276 277 -278 0
278 -279 0
-53 -279 0
275 279 -280 0
280 -282 0
66 -282 0
281 -282 0
282 -283 0
-184 -283 0
273 283 -284 0
206 -285 0
225 -285 0
286 -287 0
-225 -287 0
285 287 -288 0
264 -289 0
284 -289 0
288 -289 0
289 -290 0
229 -290 0
251 -292 0
252 -292 0
291 -292 0
292 -293 0
5 -293 0
-242 -294 0
261 -295 0
294 -295 0
295 -296 0
-5 -296 0
293 296 -297 0
266 -298 0
184 -298 0
66 -299 0
-184 -299 0
298 299 -300 0
300 -301 0
269 -301 0
270 -301 0
301 -302 0
53 -302 0
66 -303 0
-184 -303 0
278 -304 0
303 -304 0
304 -305 0
-53 -305 0
302 305 -306 0
-86 -307 0
-206 -307 0
-225 -307 0
297 -308 0
306 -308 0
307 -308 0
308 -309 0
-229 -309 0
290 309 -310 0
123 -311 0
312 -313 0
-123 -313 0
7 -315 0
67 -315 0
-108 -315 0
114 -315 0
124 -315 0
195 -315 0
209 -315 0
-237 -315 0
316 -322 0
317 -322 0
318 -322 0
319 -322 0
320 -322 0
321 -322 0
310 -323 0
314 -323 0
322 -323 0
325 -326 0
162 -346 0
209 -347 0
184 -347 0
348 -349 0
-184 -349 0
347 349 -350 0
350 -351 0
269 -351 0
270 -351 0
351 -352 0
53 -352 0
278 -353 0
-184 -353 0
348 -353 0
353 -354 0
-53 -354 0
352 354 -355 0
66 -356 0
67 -356 0
86 -356 0
-108 -356 0
114 -356 0
206 -356 0
316 -359 0
317 -359 0
318 -359 0
319 -359 0
357 -359 0
320 -359 0
358 -359 0
321 -359 0
264 -360 0
355 -360 0
314 -360 0
356 -360 0
359 -360 0
360 -361 0
-237 -362 0
361 -363 0
362 -363 0
363 -364 0
71 -364 0
66 -366 0
365 -366 0
366 -367 0
86 -367 0
108 -368 0
266 -368 0
368 -369 0
-86 -369 0
367 369 -370 0
53 -371 0
209 -371 0
269 -372 0
270 -372 0
370 -373 0
371 -373 0
372 -373 0
373 -374 0
184 -374 0
365 -375 0
86 -375 0
108 -376 0
-86 -376 0
375 376 -377 0
280 -378 0
377 -378 0
66 -378 0
378 -379 0
348 -379 0
379 -380 0
-184 -380 0
374 380 -381 0
3 -382 0
-5 -382 0
-114 -382 0
-126 -382 0
-140 -382 0
-225 -382 0
-242 -382 0
255 -384 0
383 -384 0
381 -385 0
382 -385 0
384 -385 0
385 -386 0
18 -386 0
67 -387 0
114 -387 0
387 -388 0
225 -388 0
67 -389 0
114 -389 0
383 -390 0
-114 -390 0
389 390 -391 0
391 -392 0
-225 -392 0
388 392 -393 0
-5 -394 0
-126 -394 0
-242 -394 0
393 -395 0
394 -395 0
395 -396 0
255 -396 0
396 -397 0
3 -397 0
126 -398 0
252 -398 0
398 -399 0
5 -399 0
-242 -400 0
258 -400 0
400 -401 0
-5 -401 0
399 401 -402 0
67 -403 0
114 -403 0
-119 -403 0
402 -404 0
403 -404 0
357 -404 0
404 -405 0
-3 -405 0
397 405 -406 0
66 -407 0
86 -407 0
-108 -407 0
406 -408 0
355 -408 0
407 -408 0
408 -409 0
316 -409 0
409 -410 0
-18 -410 0
386 410 -411 0
206 -412 0
413 -414 0
317 -414 0
319 -414 0
320 -414 0
321 -414 0
411 -415 0
314 -415 0
412 -415 0
414 -415 0
415 -416 0
416 -418 0
417 -418 0
418 -419 0
7 -419 0
206 -420 0
413 -421 0
317 -421 0
319 -421 0
320 -421 0
321 -421 0
411 -422 0
314 -422 0
420 -422 0
421 -422 0
422 -423 0
-7 -423 0
419 423 -424 0
424 -425 0
425 -427 0
426 -427 0
427 -428 0
-155 -429 0
428 -430 0
429 -430 0
430 -431 0
-71 -431 0
432 -434 0
-162 -454 0
455 -456 0
1 0
2 0
4 0
-6 0
8 0
-9 0
-11 0
-12 0
-13 0
14 0
-15 0
16 0
-17 0
-19 0
-20 0
-21 0
22 0
-23 0
-24 0
25 0
-26 0
-27 0
28 0
29 0
31 0
32 0
-33 0
-34 0
-35 0
36 0
-37 0
38 0
39 0
41 0
42 0
44 0
-45 0
-46 0
-47 0
48 0
49 0
50 0
-51 0
-52 0
-54 0
55 0
56 0
-57 0
-58 0
59 0
-60 0
-61 0
62 0
63 0
64 0
-65 0
68 0
69 0
-70 0
72 0
-73 0
-74 0
-75 0
-76 0
77 0
78 0
79 0
-80 0
-81 0
-82 0
-83 0
-85 0
-87 0
88 0
89 0
-90 0
-91 0
-92 0
93 0
94 0
-95 0
96 0
97 0
99 0
100 0
101 0
-102 0
103 0
104 0
105 0
106 0
-107 0
-109 0
110 0
111 0
112 0
-113 0
-115 0
-116 0
117 0
-118 0
-120 0
121 0
122 0
125 0
127 0
128 0
129 0
-130 0
-131 0
-132 0
-133 0
134 0
135 0
-136 0
-137 0
138 0
139 0
141 0
-142 0
-143 0
-144 0
145 0
-146 0
-147 0
148 0
149 0
-150 0
-151 0
-152 0
153 0
154 0
-156 0
-157 0
158 0
-159 0
160 0
-161 0
163 0
-164 0
165 0
-166 0
-167 0
-168 0
-169 0
-170 0
-171 0
-172 0
173 0
174 0
175 0
176 0
177 0
-178 0
179 0
180 0
181 0
-182 0
-183 0
185 0
186 0
-187 0
-188 0
189 0
190 0
192 0
-193 0
-194 0
196 0
-197 0
-198 0
199 0
200 0
-201 0
202 0
203 0
204 0
205 0
207 0
-208 0
-210 0
211 0
-212 0
-213 0
-214 0
-215 0
-216 0
-217 0
-218 0
-219 0
-220 0
-221 0
222 0
-223 0
224 0
226 0
-227 0
228 0
230 0
-232 0
-233 0
234 0
-236 0
-238 0
239 0
-240 0
241 0
-243 0
-244 0
-245 0
246 0
-247 0
-248 0
-249 0
250 0
-460 461 0
-459 460 0
-457 458 0
-449 450 0
-447 448 0
-446 447 0
-445 446 0
-443 444 0
-442 443 0
-441 442 0
-440 442 0
-439 440 0
-438 439 0
-437 438 0
-432 434 0
71 431 0
-426 427 0
-425 427 0
-423 424 0
-422 423 0
-419 424 0
-417 418 0
-413 414 421 0
-98 436 0
-412 415 0
-411 415 422 0
-408 409 0
-405 406 0
-397 406 0
-396 397 0
-395 396 0
-393 395 0
-392 393 0
-390 391 0
-389 391 0
-388 393 0
-387 388 0
-386 411 0
-18 386 0
-207 462 0
114 382 390 0
-371 373 0
-367 370 0
-366 367 0
-363 364 0
-361 363 0
-360 361 0
-373 374 0
-358 359 0
-356 360 0
-355 360 408 0
-354 355 0
-353 354 0
-352 355 0
-347 350 0
-345 346 0
-344 345 0
-342 343 0
-341 342 0
-340 341 0
-427 428 0
-339 341 0
-338 339 0
-394 395 0
-337 338 0
-368 369 0
-335 337 0
-429 430 0
-334 335 0
-333 334 0
-415 416 0
-330 331 0
-458 459 0
-329 331 0
-349 350 0
-325 326 0
-323 324 0
-431 432 0
43 321 0
-43 321 0
30 320 0
-30 320 0
-430 431 0
-403 404 0
-450 451 0
-380 381 0
10 319 0
-362 363 0
-10 319 0
-318 322 359 0
155 318 429 0
-401 402 0
-155 318 0
231 317 0
-231 317 0
140 316 382 0
-140 316 0
-359 360 0
-444 446 0
-452 453 0
237 315 362 413 0
-402 404 0
-382 385 0
-376 377 0
-327 328 0
123 313 0
-287 288 0
7 358 423 0
-322 323 0
-377 378 0
67 383 0
3 251 260 405 0
-261 262 295 0
-123 311 0
229 309 0
-428 430 0
-283 284 0
-435 437 0
-304 305 0
-300 301 0
-404 405 0
-299 300 0
66 266 0
-448 450 0
-374 381 0
-302 306 0
-295 296 0
-462 463 0
-294 295 0
-293 297 0
-292 293 0
-291 292 0
-40 291 0
-252 253 292 398 0
-288 289 0
-3 257 382 397 0
-265 268 0
126 256 258 382 394 0
-260 261 0
-372 373 0
-365 366 375 0
-296 297 0
-267 268 0
-357 359 404 0
53 279 305 354 0
-303 304 0
-237 413 0
-258 259 400 0
-280 282 378 0
-343 345 0
-290 310 0
-255 256 384 396 0
-263 264 0
-277 278 0
-328 329 0
-266 267 298 368 0
-67 315 356 383 387 389 403 0
5 263 296 382 394 401 0
-316 322 359 409 0
-282 283 0
119 251 255 259 403 0
-420 422 0
184 283 299 303 349 353 380 0
-253 254 0
-242 252 0
-276 278 0
-416 418 0
-375 377 0
-324 326 0
-254 264 0
-184 273 298 347 374 0
-195 315 0
242 252 262 294 382 394 400 0
-434 435 0
-285 288 0
-311 314 0
-53 272 275 302 352 371 0
-286 287 0
-379 380 0
-84 269 0
-351 352 0
-274 275 0
235 312 0
-256 257 0
-309 310 0
-273 284 0
-66 265 266 282 299 303 356 366 378 407 0
-312 313 0
-259 260 0
-308 309 0
-251 253 292 0
-119 255 0
-409 410 0
-36 333 452 0
-310 323 0
-5 254 293 399 0
-297 308 0
-331 332 0
-268 272 0
-456 457 0
-278 279 304 353 0
191 270 277 0
-407 408 0
-108 365 368 376 0
-384 385 0
-307 308 0
-305 306 0
-336 337 0
-271 272 0
-272 273 0
-433 434 0
-269 271 274 276 301 351 372 0
-275 280 0
-421 422 0
209 348 0
-383 384 390 0
-289 290 0
108 315 356 365 407 0
-279 280 0
-385 386 0
-281 282 0
225 287 307 357 382 392 0
-453 454 0
-364 432 0
-284 289 0
-315 323 0
-306 308 0
-301 302 0
-225 285 357 388 0
-370 373 0
-270 271 274 301 351 372 0
-414 415 0
-79 456 0
-410 411 0
-451 453 0
-381 385 0
86 267 281 307 369 376 0
169 340 445 0
-257 261 0
-399 402 0
-418 419 0
-326 327 0
-264 289 360 0
-350 351 0
-398 399 0
-191 270 276 0
98 315 0
-298 300 0
-121 336 441 0
-436 437 0
-262 263 0
-369 370 0
206 286 307 0
-114 315 356 387 389 403 0
-209 315 347 348 371 0
-124 315 0
-391 392 0
217 330 436 0
-348 349 353 379 0
-378 379 0
84 269 277 0
-400 401 0
-313 314 0
-332 334 0
65 344 449 0
-86 265 281 356 367 375 407 0
-424 425 0
-406 408 0
-211 315 433 0
-126 251 258 398 0
